\ENCODING=ISO-8859-1
\Problem name: QP from CasADi

Minimize
 obj: 0 x9 + 0 x10 + 0 x13 + 0 x14 + x47 + x48
Subject To
 c1:   x5 + x11 - x27  = 0
 c2:   - x1 - x3 + x25  = 0
 c3:   x17 + x23 - x37  = 0
 c4:   - x15 + x21 + x35  = 0
 c5:   x19 - x29 + 0.662629488828756 x33  = 0
 c6:   x7 - x39 + 0.662629488828756 x45  = 0
 c7:   x6 + x12 - x28  = 0
 c8:   - x2 - x4 + x26  = 0
 c9:   x18 + x24 - x38  = 0
 c10:  - x16 + x22 + x36  = 0
 c11:  x20 - x30 + 0.662629488828756 x34  = 0
 c12:  x8 - x40 + 0.662629488828756 x46  = 0
 c13:  - 0.01449347091216 x41 - 0.256120772302458 x43 >= 0
 c14:  - 0.01449347091216 x42 - 0.256120772302458 x44 >= 0
 c15:  - 0.01449347091216 x41 - 0.256120772302458 x43 <= 0
 c16:  - 0.01449347091216 x42 - 0.256120772302458 x44 <= 0
 c17:  - 0.1 x43 - 0.1 x49 - x53 >= -1
 c18:  - 0.1 x44 - 0.1 x50 - x54 >= -1
 c19:  0.1 x43 - 0.1 x49 + x53 >= 0
 c20:  0.1 x44 - 0.1 x50 + x54 >= 0
 c21:  - 0.1 x43 - 0.1 x49 + x53 <= 1
 c22:  - 0.1 x44 - 0.1 x50 + x54 <= 1
 c23:  0.1 x43 - 0.1 x49 - x53 <= 0
 c24:  0.1 x44 - 0.1 x50 - x54 <= 0
 c25:  - 0.255290703510786 x31 - 0.014446498627253 x41 >= 0
 c26:  - 0.255290703510786 x32 - 0.014446498627253 x42 >= 0
 c27:  - 0.255290703510786 x31 - 0.014446498627253 x41 <= 0
 c28:  - 0.255290703510786 x32 - 0.014446498627253 x42 <= 0
 c29:  - 0.1 x31 - 0.1 x51 - x53 >= -1
 c30:  - 0.1 x32 - 0.1 x52 - x54 >= -1
 c31:  0.1 x31 - 0.1 x51 + x53 >= 0
 c32:  0.1 x32 - 0.1 x52 + x54 >= 0
 c33:  - 0.1 x31 - 0.1 x51 + x53 <= 1
 c34:  - 0.1 x32 - 0.1 x52 + x54 <= 1
 c35:  0.1 x31 - 0.1 x51 - x53 <= 0
 c36:  0.1 x32 - 0.1 x52 - x54 <= 0
 c37:  x55  = 1
 c38:  x56  = 1
 c39:  4.1496 x21 + 1.5 x47 >= 1.5
 c40:  4.1496 x21 - 0.5 x47 <= 1.5
 c41:  - 0.234227413705435 x5 + 0.234227413705435 x37 + 4.26935508606863 x43
        = 0
 c42:  - 0.234988995947158 x17 + 0.234988995947158 x27 + 4.2555184168065 x31
        = 0
 c43:  x17 - x37 >= 10.2
 c44:  - 0.112961371435413 x41 + 0.000169476778882706 x45
       - 22.1314593496185 x53 >= -22.1314593496185
 c45:  - 0.112961371435413 x41 + 0.000169476778882706 x45
       + 22.1314593496185 x53 <= 22.1314593496185
 c46:  0.112961371435413 x41 + 0.000169476778882706 x45 + 22.1314593496185 x53
       >= 0
 c47:  0.112961371435413 x41 + 0.000169476778882706 x45 - 22.1314593496185 x53
       <= 0
 c48:  0.000170027826700465 x33 - 0.112595271847902 x41 - 22.2034190154725 x53
       >= -22.2034190154725
 c49:  0.000170027826700465 x33 - 0.112595271847902 x41 + 22.2034190154725 x53
       <= 22.2034190154725
 c50:  0.000170027826700465 x33 + 0.112595271847902 x41 + 22.2034190154725 x53
       >= 0
 c51:  0.000170027826700465 x33 + 0.112595271847902 x41 - 22.2034190154725 x53
       <= 0
 c52:  0.357539258742026 x41 - 31.6543835826888 x53 <= -0.0315912011803282
 c53:  0.357539258742026 x41 - 31.6543835826888 x53 >= -31.6227923815085
 c54:  0.41496 x35 - x53 <= 0
 c55:  0.41496 x35 - x53 >= -1
 c56:  0.357539258742026 x41 - 31.6543835826888 x53 <= -0.0315912011803282
 c57:  0.357539258742026 x41 - 31.6543835826888 x53 >= -31.6227923815085
 c58:  0.41496 x25 - x53 <= 0
 c59:  0.41496 x25 - x53 >= -1
 c60:  - 6.6370133589627 x3 + 6.6370133589627 x35 - 0.150670180383107 x55  = 0
 c61:  - 4.78154160760699 x15 + 4.78154160760699 x25 - 0.209137571533225 x56
        = 0
 c62:  x35 - 0.45 x41  = 0
 c63:  x25 - 0.75 x41  = 0
 c64:  0.41496 x35 - 0.186732 x41 + x53 <= 1
 c65:  0.41496 x35 - 0.186732 x41 + x53 >= 0
 c66:  0.41496 x3 - 0.186732 x41 + x53 <= 1
 c67:  0.41496 x3 - 0.186732 x41 + x53 >= 0
 c68:  0.41496 x25 - 0.31122 x41 + x53 <= 1
 c69:  0.41496 x25 - 0.31122 x41 + x53 >= 0
 c70:  0.41496 x15 - 0.31122 x41 + x53 <= 1
 c71:  0.41496 x15 - 0.31122 x41 + x53 >= 0
 c72:  4.1496 x22 + 1.5 x48 >= 1.5
 c73:  4.1496 x22 - 0.5 x48 <= 1.5
 c74:  - 0.234227413705435 x6 + 0.234227413705435 x38 + 4.26935508606863 x44
        = 0
 c75:  - 0.234988995947158 x18 + 0.234988995947158 x28 + 4.2555184168065 x32
        = 0
 c76:  x18 - x38 >= 10.2
 c77:  - 0.112961371435413 x42 + 0.000169476778882706 x46
       - 22.1314593496185 x54 >= -22.1314593496185
 c78:  - 0.112961371435413 x42 + 0.000169476778882706 x46
       + 22.1314593496185 x54 <= 22.1314593496185
 c79:  0.112961371435413 x42 + 0.000169476778882706 x46 + 22.1314593496185 x54
       >= 0
 c80:  0.112961371435413 x42 + 0.000169476778882706 x46 - 22.1314593496185 x54
       <= 0
 c81:  0.000170027826700465 x34 - 0.112595271847902 x42 - 22.2034190154725 x54
       >= -22.2034190154725
 c82:  0.000170027826700465 x34 - 0.112595271847902 x42 + 22.2034190154725 x54
       <= 22.2034190154725
 c83:  0.000170027826700465 x34 + 0.112595271847902 x42 + 22.2034190154725 x54
       >= 0
 c84:  0.000170027826700465 x34 + 0.112595271847902 x42 - 22.2034190154725 x54
       <= 0
 c85:  0.357539258742026 x42 - 31.6543835826888 x54 <= -0.0315912011803282
 c86:  0.357539258742026 x42 - 31.6543835826888 x54 >= -31.6227923815085
 c87:  0.41496 x36 - x54 <= 0
 c88:  0.41496 x36 - x54 >= -1
 c89:  0.357539258742026 x42 - 31.6543835826888 x54 <= -0.0315912011803282
 c90:  0.357539258742026 x42 - 31.6543835826888 x54 >= -31.6227923815085
 c91:  0.41496 x26 - x54 <= 0
 c92:  0.41496 x26 - x54 >= -1
 c93:  - 6.6370133589627 x4 + 6.6370133589627 x36 - 0.150670180383107 x55  = 0
 c94:  - 4.78154160760699 x16 + 4.78154160760699 x26 - 0.209137571533225 x56
        = 0
 c95:  x36 - 0.45 x42  = 0
 c96:  x26 - 0.75 x42  = 0
 c97:  0.41496 x36 - 0.186732 x42 + x54 <= 1
 c98:  0.41496 x36 - 0.186732 x42 + x54 >= 0
 c99:  0.41496 x4 - 0.186732 x42 + x54 <= 1
 c100: 0.41496 x4 - 0.186732 x42 + x54 >= 0
 c101: 0.41496 x26 - 0.31122 x42 + x54 <= 1
 c102: 0.41496 x26 - 0.31122 x42 + x54 >= 0
 c103: 0.41496 x16 - 0.31122 x42 + x54 <= 1
 c104: 0.41496 x16 - 0.31122 x42 + x54 >= 0
Bounds
 0.18074031231926 <= x1 <= 0.301233853865433
 0.18074031231926 <= x2 <= 0.301233853865433
 0 <= x3 <= 1.20493541546173
 0 <= x4 <= 1.20493541546173
      x5 Free
      x6 Free
      x7 Free
      x8 Free
 0 <= x15 <= 1.20493541546173
 0 <= x16 <= 1.20493541546173
      x17 Free
      x18 Free
      x19 Free
      x20 Free
 -Inf <= x23 <= 0
 -Inf <= x24 <= 0
 0 <= x25 <= 0.481974166184692
 0 <= x26 <= 0.481974166184692
      x27 Free
      x28 Free
      x29 Free
      x30 Free
      x31 Free
      x32 Free
 0 <= x35 <= 1.20493541546173
 0 <= x36 <= 1.20493541546173
      x37 Free
      x38 Free
      x39 Free
      x40 Free
      x41 Free
      x42 Free
      x43 Free
      x44 Free
 0 <= x47 <= 1
 0 <= x48 <= 1
      x53 = 1
      x54 = 1
 0 <= x55 <= 2
 0 <= x56 <= 2
Generals
 x53  x54 
End
